0 1650 
1 1634 
2 1630 
3 1622 
4 1618 
5 1614 
6 1602 
7 1598 
8 1594 
9 1592 
10 1590 
11 1572 
12 1564 
13 1548 
14 1526 
15 1514 
16 1498 
17 1492 
18 1488 
19 1484 
20 1480 
21 1478 
22 1470 
23 1450 
24 1408 
25 1384 
26 1380 
27 1368 
28 1342 
29 1338 
30 1334 
31 1326 
32 1326 
33 1318 
34 1308 
35 1304 
36 1300 
37 1300 
38 1288 
39 1272 
40 1252 
41 1244 
42 1234 
43 1230 
44 1230 
45 1230 
46 1230 
47 1230 
48 1218 
49 1210 
50 1198 
51 1194 
52 1190 
53 1186 
54 1180 
55 1180 

